--- Job zonal_with_locational_instrument.gms Start 12/01/21 16:14:24 30.3.0 rc5da09e WEX-WEI x86 64bit/MS Windows
--- GAMS Parameters defined
    Input C:\Users\a.eicke\Documents\Locational-investment-signals\Three node models\zonal_with_locational_instrument.gms
    PageSize 0
    ScrDir C:\Users\a.eicke\Documents\Locational-investment-signals\Three node models\225b\
    SysDir C:\GAMS\win64\30.3\
    LogOption 3
    ErrMsg 1
    ErrorLog 99
    IDE 1
    LstTitleLeftAligned 1
GAMS 30.3.0   Copyright (C) 1987-2020 GAMS Development. All rights reserved
Licensee: Small MUD - 5 User License                     S190305:0326AO-WIN
          Hertie School of Governance GmbH, Governance of DigitalizaDC14808
--- Starting compilation
--- zonal_with_locational_instrument.gms(84) 3 Mb
--- GDXin=C:\Users\a.eicke\Documents\Locational-investment-signals\Three node models\in.gdx
--- zonal_with_locational_instrument.gms(332) 3 Mb
--- Starting execution: elapsed 0:00:00.015
--- zonal_with_locational_instrument.gms(303) 4 Mb
--- Generating MIQCP model LOCI
--- zonal_with_locational_instrument.gms(306) 7 Mb
---   2,347 rows  1,741 columns  6,713 non-zeroes
---   322 nl-code  56 nl-non-zeroes
---   472 discrete-columns
--- zonal_with_locational_instrument.gms(306) 5 Mb
--- Executing CPLEX: elapsed 0:00:00.046

IBM ILOG CPLEX   30.3.0 rc5da09e Released Mar 06, 2020 WEI x86 64bit/MS Window
--- GAMS/Cplex licensed for continuous and discrete problems.
Cplex 12.10.0.0

The search will stop after 25000000 nodes.
Reading data...
Starting Cplex...
Space for names approximately 0.12 Mb
Use option 'names no' to turn use of names off
Version identifier: 12.10.0.0 | 2019-11-26 | 843d4de2ae
CPXPARAM_Advance                                 0
CPXPARAM_Threads                                 1
CPXPARAM_Parallel                                1
CPXPARAM_MIP_Display                             4
CPXPARAM_Simplex_Limits_Iterations               2000000000
CPXPARAM_MIP_Limits_Nodes                        25000000
CPXPARAM_TimeLimit                               40000
CPXPARAM_Tune_TimeLimit                          8000
CPXPARAM_MIP_Tolerances_AbsMIPGap                0
CPXPARAM_MIP_Tolerances_MIPGap                   0.10000000000000001
CPXPARAM_WorkDir                                 "C:\Users\a.eicke\Documents\Locational-investment-signals\Three node models\225b\"
Tried aggregator 2 times.
MIQP Presolve eliminated 610 rows and 230 columns.
MIQP Presolve modified 652 coefficients.
Aggregator did 49 substitutions.
Reduced MIQP has 1688 rows, 1453 columns, and 4816 nonzeros.
Reduced MIQP has 408 binaries, 0 generals, 0 SOSs, and 0 indicators.
Reduced MIQP objective Q matrix has 104 nonzeros.
Presolve time = 0.02 sec. (4.93 ticks)
Probing fixed 0 vars, tightened 161 bounds.
Probing time = 0.00 sec. (1.36 ticks)
Tried aggregator 1 time.
MIQP Presolve modified 158 coefficients.
Reduced MIQP has 1688 rows, 1453 columns, and 4816 nonzeros.
Reduced MIQP has 408 binaries, 0 generals, 0 SOSs, and 0 indicators.
Reduced MIQP objective Q matrix has 104 nonzeros.
Presolve time = 0.02 sec. (2.80 ticks)
Classifier predicts products in MIQP should be linearized.
Probing fixed 0 vars, tightened 6 bounds.
Probing time = 0.00 sec. (1.09 ticks)
Clique table members: 352.
MIP emphasis: balance optimality and feasibility.
MIP search method: dynamic search.
Parallel mode: none, using 1 thread.
Number of nonzeros in lower triangle of Q = 24
Using Approximate Minimum Degree ordering
Total time for automatic ordering = 0.00 sec. (0.00 ticks)
Summary statistics for factor of Q:
  Rows in Factor            = 56
  Integer space required    = 56
  Total non-zeros in factor = 80
  Total FP ops to factor    = 128
Tried aggregator 1 time.
Aggregator did 408 substitutions.
Number of nonzeros in lower triangle of Q = 24
Using Approximate Minimum Degree ordering
Total time for automatic ordering = 0.00 sec. (0.00 ticks)
Summary statistics for factor of Q:
  Rows in Factor            = 56
  Integer space required    = 56
  Total non-zeros in factor = 80
  Total FP ops to factor    = 128
Reduced QP has 1280 rows, 1045 columns, and 4000 nonzeros.
Reduced QP objective Q matrix has 104 nonzeros.
Presolve time = 0.00 sec. (1.24 ticks)
Tried aggregator 1 time.
QP Presolve eliminated 24 rows and 24 columns.
QP Presolve added 0 rows and 56 columns.
Reduced QP has 1312 rows, 1077 columns, and 4088 nonzeros.
Reduced QP objective Q matrix has 32 nonzeros.
Presolve time = 0.00 sec. (0.62 ticks)
Parallel mode: none, using 1 thread for barrier

***NOTE: Found 6 dense columns.

Number of nonzeros in lower triangle of A*A' = 9879
Using Approximate Minimum Degree ordering
Total time for automatic ordering = 0.01 sec. (0.90 ticks)
Summary statistics for Cholesky factor:
  Rows in Factor            = 1318
  Integer space required    = 4974
  Total non-zeros in factor = 43425
  Total FP ops to factor    = 3702051
 Itn      Primal Obj        Dual Obj  Prim Inf Upper Inf  Dual Inf          
   0   9.4755716e+05   3.8265201e+10  5.05e+05  2.57e+05  1.00e+06
   1  -9.7714929e+04   2.6811092e+10  3.52e+05  1.79e+05  6.97e+05
   2  -1.6403611e+06   1.9252525e+10  2.50e+05  1.28e+05  4.97e+05
   3  -3.5379757e+06   1.0197823e+10  1.31e+05  6.68e+04  2.60e+05
   4  -4.3227676e+06   8.7665321e+08  1.02e+04  5.22e+03  2.03e+04
   5  -2.1928459e+06   1.6254367e+08  1.88e+03  9.57e+02  3.73e+03
   6  -2.0706217e+06   1.3210514e+08  1.45e+03  7.36e+02  2.87e+03
   7  -1.3296345e+06   5.9698812e+07  5.69e+02  2.90e+02  1.13e+03
   8  -7.9246378e+05   2.3570748e+07  1.66e+02  8.46e+01  3.30e+02
   9  -1.0244421e+05   3.0497128e+06  4.28e-10  1.44e-09  4.29e-11
  10   6.3254498e+04   1.4996138e+06  3.10e-10  1.21e-09  2.44e-11
  11   9.9521977e+04   9.6783361e+05  3.09e-10  1.30e-09  1.20e-11
  12   1.5754238e+05   4.2799240e+05  4.17e-10  1.40e-09  8.27e-12
  13   1.9057959e+05   2.9435733e+05  9.53e-10  1.12e-09  6.63e-12
  14   2.0080421e+05   2.4892291e+05  9.13e-10  1.28e-09  5.94e-12
  15   2.0565300e+05   2.3035219e+05  9.71e-10  1.16e-09  5.31e-12
  16   2.0807076e+05   2.2060814e+05  1.06e-09  1.30e-09  5.17e-12
  17   2.1007914e+05   2.1243684e+05  1.57e-09  1.54e-09  5.74e-12
  18   2.1051829e+05   2.1110331e+05  2.53e-09  1.14e-09  4.92e-12
  19   2.1064642e+05   2.1072801e+05  2.32e-09  1.48e-09  5.70e-12
  20   2.1066105e+05   2.1068498e+05  3.40e-09  1.39e-09  5.16e-12
  21   2.1066397e+05   2.1067538e+05  6.93e-09  1.24e-09  5.07e-12
  22   2.1066604e+05   2.1066867e+05  1.27e-08  1.19e-09  5.13e-12
  23   2.1066659e+05   2.1066693e+05  9.25e-09  1.19e-09  5.47e-12
  24   2.1066667e+05   2.1066668e+05  1.14e-08  1.49e-09  5.81e-12
  25   2.1066667e+05   2.1066667e+05  1.24e-08  1.28e-09  5.96e-12
  26   2.1066667e+05   2.1066667e+05  7.95e-09  1.48e-09  5.75e-12
Barrier time = 0.16 sec. (57.43 ticks)

Total time on 1 threads = 0.16 sec. (58.68 ticks)
Barrier time = 0.16 sec. (57.45 ticks)

QP crossover.
  Primal and Dual:  Fixing 392 variables.
  Primal:  Pushed 98, exchanged 168.
  Dual  :  Pushed 112, exchanged 147.

Iteration log . . .
Iteration:     1    Objective     =        210666.669967
Total crossover time = 0.03 sec. (22.98 ticks)

Total time on 1 threads = 0.19 sec. (81.81 ticks)
Root relaxation solution time = 0.19 sec. (81.82 ticks)

        Nodes                                         Cuts/
   Node  Left     Objective  IInf  Best Integer    Best Bound    ItCnt     Gap

      0     0   210666.6700   204                 210666.6700      138         
      0     0   210656.2904   204                   Cuts: 151      440         
      0     0   210632.0809   204                   Cuts: 204      687         
      0     0   210533.4919   204                   Cuts: 154     1016         
      0     0   208725.4027   204                   Cuts: 117     1512         
      0     0   208580.5000   204                   Cuts: 158     2127         
      0     0   208528.2185   204                   Cuts: 170     2339         
      0     0   208514.8144   204                   Cuts: 178     2503         
      0     0   208514.8019   204                    Cuts: 42     2550         
      0     2   208514.8019   205                 208510.0674     2550         
Elapsed time = 3.08 sec. (1658.81 ticks, tree = 0.01 MB, solutions = 0)
     20    10   203240.7094   163                 207206.1215     6152         
     27    11   207206.0429   211                 207205.9332    10551         
                                                      Cuts: 9                  
     73    23   204481.5698   110                 207205.8651    13172         
    103    39   202613.4977   106                 207205.8651    16736         
    125    59   203695.1647    96                 207205.8651    21698         
    154    88   204414.2313    51                 207205.8651    25283         
    183   101   203674.1581    42                 207205.8651    29754         
    200   112   200185.3273    28                 207205.8651    33541         
*   218   104      integral     0   202342.6982   207205.8651    35037    2.40%
Found incumbent of value 202342.698171 after 7.13 sec. (3778.50 ticks)

Clique cuts applied:  4
Implied bound cuts applied:  41
Flow cuts applied:  194
Mixed integer rounding cuts applied:  142

Root node processing (before b&c):
  Real time             =    3.08 sec. (1657.93 ticks)
Sequential b&c:
  Real time             =    4.05 sec. (2123.54 ticks)
                          ------------
Total (root+branch&cut) =    7.13 sec. (3781.47 ticks)
MIQP status(102): integer optimal, tolerance
Cplex Time: 7.13sec (det. 3781.48 ticks)
Fixing integer variables, and solving final QP..
Version identifier: 12.10.0.0 | 2019-11-26 | 843d4de2ae
CPXPARAM_Advance                                 2
CPXPARAM_Threads                                 1
CPXPARAM_Parallel                                1
CPXPARAM_MIP_Display                             4
CPXPARAM_Simplex_Limits_Iterations               2000000000
CPXPARAM_MIP_Limits_Nodes                        25000000
CPXPARAM_TimeLimit                               40000
CPXPARAM_Tune_TimeLimit                          8000
CPXPARAM_MIP_Tolerances_AbsMIPGap                0
CPXPARAM_MIP_Tolerances_MIPGap                   0.10000000000000001
CPXPARAM_WorkDir                                 "C:\Users\a.eicke\Documents\Locational-investment-signals\Three node models\225b\"
Number of nonzeros in lower triangle of Q = 24
Using Approximate Minimum Degree ordering
Total time for automatic ordering = 0.00 sec. (0.00 ticks)
Summary statistics for factor of Q:
  Rows in Factor            = 56
  Integer space required    = 56
  Total non-zeros in factor = 80
  Total FP ops to factor    = 128
Tried aggregator 1 time.
QP Presolve eliminated 1757 rows and 1230 columns.
QP Presolve added 0 rows and 56 columns.
Aggregator did 190 substitutions.
Reduced QP has 456 rows, 377 columns, and 1581 nonzeros.
Reduced QP objective Q matrix has 13 nonzeros.
Presolve time = 0.02 sec. (1.88 ticks)
Parallel mode: none, using 1 thread for barrier

***NOTE: Found 5 dense columns.

Number of nonzeros in lower triangle of A*A' = 3981
Using Approximate Minimum Degree ordering
Total time for automatic ordering = 0.00 sec. (0.24 ticks)
Summary statistics for Cholesky factor:
  Rows in Factor            = 461
  Integer space required    = 1844
  Total non-zeros in factor = 17228
  Total FP ops to factor    = 1182522
 Itn      Primal Obj        Dual Obj  Prim Inf Upper Inf  Dual Inf          
   0  -1.0709179e+05   2.3426268e+08  2.95e+04  7.87e+02  3.86e+05
   1  -1.4430294e+05   1.9220351e+08  2.30e+04  6.13e+02  3.01e+05
   2  -1.6092187e+05   1.2298729e+08  1.41e+04  3.75e+02  1.84e+05
   3  -2.7786435e+05   7.3815130e+07  7.31e+03  1.95e+02  9.61e+04
   4  -3.8784683e+05   2.7953614e+07  2.08e+03  5.73e+01  2.73e+04
   5  -4.3075248e+05   7.4425687e+06  1.81e+02  4.97e+00  2.37e+03
   6   4.6581962e+04   5.8197934e+05  9.59e+00  2.64e-01  1.26e+02
   7   1.1717186e+05   4.3761625e+05  3.92e+00  1.08e-01  5.14e+01
   8   1.7676549e+05   2.6739880e+05  8.39e-01  2.31e-02  1.11e+01
   9   1.8838000e+05   2.3997210e+05  3.43e-01  9.42e-03  4.65e+00
  10   1.9354146e+05   2.2435695e+05  1.38e-01  3.81e-03  1.88e+00
  11   1.9738420e+05   2.1496020e+05  4.90e-02  1.35e-03  6.75e-01
  12   1.9966881e+05   2.0907032e+05  1.86e-02  5.11e-04  2.56e-01
  13   2.0072532e+05   2.0618949e+05  9.47e-03  2.60e-04  1.31e-01
  14   2.0148704e+05   2.0425589e+05  8.94e-05  2.46e-06  1.25e-03
  15   2.0182457e+05   2.0350272e+05  5.02e-05  1.49e-06  7.16e-04
  16   2.0213620e+05   2.0280452e+05  1.92e-05  6.09e-07  2.88e-04
  17   2.0227920e+05   2.0247966e+05  5.77e-06  1.82e-07  8.92e-05
  18   2.0231906e+05   2.0239366e+05  2.16e-06  6.77e-08  3.42e-05
  19   2.0234171e+05   2.0234483e+05  1.23e-07  2.76e-09  3.88e-06
  20   2.0234258e+05   2.0234296e+05  1.07e-07  3.29e-10  4.68e-07
  21   2.0234270e+05   2.0234270e+05  6.27e-08  1.73e-11  3.33e-09
  22   2.0234270e+05   2.0234255e+05  7.23e-06  1.70e-11  1.81e-03
  *    2.0234270e+05   2.0234270e+05  6.27e-08  1.73e-11  3.33e-09
Barrier time = 0.05 sec. (19.83 ticks)

Total time on 1 threads = 0.05 sec. (19.83 ticks)
QP status(6): non-optimal
Cplex Time: 0.05sec (det. 19.83 ticks)
Final solve did not return an optimal solution.
Returning a primal only solution to GAMS (marginals all set to NA).

Solution satisfies tolerances.

MIP Solution:       202342.698171    (35037 iterations, 219 nodes)
Best possible:      207205.865094
Absolute gap:         4863.166923
Relative gap:            0.023470

--- Restarting execution
--- zonal_with_locational_instrument.gms(306) 2 Mb
--- Reading solution for model LOCI
***
*** Solver did not provide marginals for model LOCI
***
--- Executing after solve: elapsed 0:00:07.379
--- zonal_with_locational_instrument.gms(332) 3 Mb
--- GDX File C:\Users\a.eicke\Documents\Locational-investment-signals\Three node models\Output/with_instrument.gdx
*** Status: Normal completion
--- Job zonal_with_locational_instrument.gms Stop 12/01/21 16:14:32 elapsed 0:00:07.384
